[runlim] version:		1.10
[runlim] time limit:		311040000 seconds
[runlim] real time limit:	600 seconds
[runlim] space limit:		7759 MB
[runlim] argv[0]:		python3
[runlim] argv[1]:		-u
[runlim] argv[2]:		mip.py
[runlim] argv[3]:		P5
[runlim] start:			Sun Mar 22 23:59:16 2026
[runlim] main pid:		37601
Reading dataset from data/P5.txt...
Greedy span: 246 (247-1)
--------------------------------
Starting CPLEX solver with Initial UB = 247...
Version identifier: 22.1.1.0 | 2022-11-28 | 9160aff4d
CPXPARAM_Read_DataCheck                          1
Legacy callback                                  i
Found incumbent of value 246.000000 after 0.00 sec. (3.17 ticks)
Tried aggregator 1 time.
MIP Presolve eliminated 36183 rows and 0 columns.
MIP Presolve modified 9055 coefficients.
Reduced MIP has 14264 rows, 5188 columns, and 66044 nonzeros.
Reduced MIP has 5187 binaries, 1 generals, 0 SOSs, and 0 indicators.
Presolve time = 0.06 sec. (73.29 ticks)
Probing time = 0.05 sec. (13.35 ticks)
Tried aggregator 1 time.
Detecting symmetries...
Reduced MIP has 14264 rows, 5188 columns, and 66044 nonzeros.
Reduced MIP has 5187 binaries, 1 generals, 0 SOSs, and 0 indicators.
Presolve time = 0.03 sec. (47.72 ticks)
Probing time = 0.04 sec. (13.35 ticks)
Clique table members: 9055.
MIP emphasis: balance optimality and feasibility.
MIP search method: dynamic search.
Parallel mode: deterministic, using up to 12 threads.
Root relaxation solution time = 0.68 sec. (755.04 ticks)

        Nodes                                         Cuts/
   Node  Left     Objective  IInf  Best Integer    Best Bound    ItCnt     Gap

*     0+    0                          246.0000        0.0000           100.00%
      0     0       30.1540  2255      246.0000       30.1540       16   87.74%
[runlim] sample:		29.6 time, 10.3 real, 349.8 MB
*     0+    0                          225.0000       30.1540            86.60%
      0     0       32.6038  1927      225.0000    Cuts: 1294    22452   85.51%
[runlim] sample:		82.1 time, 20.3 real, 381.9 MB
*     0+    0                          222.0000       32.6038            85.31%
      0     0       93.1232   787      222.0000      Cuts: 65    43947   58.05%
      0     0      221.0000   102      222.0000     Cuts: 352    46943    0.45%
*     0+    0                          221.0000      221.0000             0.00%
      0     0  -1.00000e+75     0      221.0000      221.0000    46943    0.00%
      0     0        cutoff            221.0000      221.0000    46943    0.00%
Elapsed time = 23.28 sec. (19218.78 ticks, tree = 0.01 MB, solutions = 4)

Zero-half cuts applied:  12
Lift and project cuts applied:  1

Root node processing (before b&c):
  Real time             =   23.28 sec. (19219.35 ticks)
Parallel b&c, 12 threads:
  Real time             =    0.00 sec. (0.00 ticks)
  Sync time (average)   =    0.00 sec.
  Wait time (average)   =    0.00 sec.
                          ------------
Total (root+branch&cut) =   23.28 sec. (19219.35 ticks)
--------------------------------
Optimal span found: 220 (221-1)
Total time taken: 25.94s
CPLEX solution is valid.
[runlim] end:			Sun Mar 22 23:59:41 2026
[runlim] status:		ok
[runlim] result:		0
[runlim] children:		0
[runlim] real:			25.78 seconds
[runlim] time:			109.98 seconds
[runlim] space:			391.8 MB
[runlim] samples:		261
